(set-logic QF_UF)
(declare-fun A0 () Bool)
(declare-fun A1 () Bool)
(declare-fun A2 () Bool)
(declare-fun A3 () Bool)
(declare-fun A4 () Bool)
(declare-fun A5 () Bool)
(declare-fun A6 () Bool)
(declare-fun A7 () Bool)
(declare-fun A8 () Bool)
(declare-fun A9 () Bool)
(declare-fun A10 () Bool)
(declare-fun A11 () Bool)
(declare-fun A12 () Bool)
(declare-fun A13 () Bool)
(declare-fun A14 () Bool)
(declare-fun A15 () Bool)
(declare-fun A16 () Bool)
(declare-fun A17 () Bool)
(declare-fun A18 () Bool)
(declare-fun A19 () Bool)
(declare-fun A20 () Bool)
(declare-fun A21 () Bool)
(declare-fun A22 () Bool)
(declare-fun A23 () Bool)
(declare-fun A24 () Bool)
(assert (let ((.def_0 (not A15))) (let ((.def_1 (and .def_0 A23))) (let ((.def_2 (not A5))) (let ((.def_3 (and A6 .def_2))) (let ((.def_4 (or .def_3 .def_1))) (let ((.def_5 (not A10))) (let ((.def_6 (not A13))) (let ((.def_7 (and .def_6 .def_5))) (let ((.def_8 (or A10 A11))) (let ((.def_9 (and .def_8 .def_7))) (let ((.def_10 (not .def_9))) (let ((.def_11 (or .def_10 .def_4))) (let ((.def_12 (not A12))) (let ((.def_13 (not A22))) (let ((.def_14 (or .def_13 .def_12))) (let ((.def_15 (not A8))) (let ((.def_16 (not A18))) (let ((.def_17 (= .def_16 .def_15))) (let ((.def_18 (and .def_17 .def_14))) (let ((.def_19 (not .def_18))) (let ((.def_20 (and .def_6 A14))) (let ((.def_21 (not .def_20))) (let ((.def_22 (not A20))) (let ((.def_23 (not A19))) (let ((.def_24 (and .def_23 .def_22))) (let ((.def_25 (= .def_24 .def_21))) (let ((.def_26 (not .def_25))) (let ((.def_27 (or .def_26 .def_19))) (let ((.def_28 (or .def_27 .def_11))) (let ((.def_29 (not .def_28))) (let ((.def_30 (not A14))) (let ((.def_31 (not A6))) (let ((.def_32 (and .def_31 .def_30))) (let ((.def_33 (not A2))) (let ((.def_34 (and A16 .def_33))) (let ((.def_35 (and .def_34 .def_32))) (let ((.def_36 (or A7 A5))) (let ((.def_37 (not A1))) (let ((.def_38 (not A9))) (let ((.def_39 (or .def_38 .def_37))) (let ((.def_40 (or .def_39 .def_36))) (let ((.def_41 (not .def_40))) (let ((.def_42 (or .def_41 .def_35))) (let ((.def_43 (not .def_42))) (let ((.def_44 (not A0))) (let ((.def_45 (not A4))) (let ((.def_46 (or .def_45 .def_44))) (let ((.def_47 (not A24))) (let ((.def_48 (not A11))) (let ((.def_49 (and .def_48 .def_47))) (let ((.def_50 (not .def_49))) (let ((.def_51 (or .def_50 .def_46))) (let ((.def_52 (not .def_51))) (let ((.def_53 (and .def_30 A16))) (let ((.def_54 (not .def_53))) (let ((.def_55 (or A16 .def_12))) (let ((.def_56 (not .def_55))) (let ((.def_57 (and .def_56 .def_54))) (let ((.def_58 (and .def_57 .def_52))) (let ((.def_59 (and .def_58 .def_43))) (let ((.def_60 (and .def_59 .def_29))) (let ((.def_61 (not .def_60))) (let ((.def_62 (not A3))) (let ((.def_63 (= A5 .def_62))) (let ((.def_64 (not .def_63))) (let ((.def_65 (= A5 A12))) (let ((.def_66 (and .def_65 .def_64))) (let ((.def_67 (not A17))) (let ((.def_68 (and .def_31 .def_67))) (let ((.def_69 (and A12 A5))) (let ((.def_70 (= .def_69 .def_68))) (let ((.def_71 (or .def_70 .def_66))) (let ((.def_72 (and A6 A19))) (let ((.def_73 (not .def_72))) (let ((.def_74 (or .def_38 A0))) (let ((.def_75 (or .def_74 .def_73))) (let ((.def_76 (not .def_75))) (let ((.def_77 (and .def_44 .def_16))) (let ((.def_78 (not .def_77))) (let ((.def_79 (or A13 A9))) (let ((.def_80 (not .def_79))) (let ((.def_81 (or .def_80 .def_78))) (let ((.def_82 (= .def_81 .def_76))) (let ((.def_83 (not .def_82))) (let ((.def_84 (and .def_83 .def_71))) (let ((.def_85 (not .def_84))) (let ((.def_86 (and .def_13 .def_15))) (let ((.def_87 (not A21))) (let ((.def_88 (and .def_23 .def_87))) (let ((.def_89 (and .def_88 .def_86))) (let ((.def_90 (not .def_89))) (let ((.def_91 (and .def_44 .def_15))) (let ((.def_92 (not .def_91))) (let ((.def_93 (or A17 A11))) (let ((.def_94 (or .def_93 .def_92))) (let ((.def_95 (not .def_94))) (let ((.def_96 (and .def_95 .def_90))) (let ((.def_97 (and A11 .def_87))) (let ((.def_98 (= A3 .def_37))) (let ((.def_99 (and .def_98 .def_97))) (let ((.def_100 (and .def_30 .def_48))) (let ((.def_101 (or A11 A10))) (let ((.def_102 (not .def_101))) (let ((.def_103 (and .def_102 .def_100))) (let ((.def_104 (or .def_103 .def_99))) (let ((.def_105 (and .def_104 .def_96))) (let ((.def_106 (and .def_105 .def_85))) (let ((.def_107 (not .def_106))) (let ((.def_108 (or .def_107 .def_61))) (let ((.def_109 (not .def_108))) (let ((.def_110 (or A14 .def_45))) (let ((.def_111 (= .def_67 .def_62))) (let ((.def_112 (not .def_111))) (let ((.def_113 (and .def_112 .def_110))) (let ((.def_114 (not .def_113))) (let ((.def_115 (and .def_44 A18))) (let ((.def_116 (not .def_115))) (let ((.def_117 (or .def_37 A7))) (let ((.def_118 (or .def_117 .def_116))) (let ((.def_119 (or .def_118 .def_114))) (let ((.def_120 (not .def_119))) (let ((.def_121 (and A1 .def_38))) (let ((.def_122 (not .def_121))) (let ((.def_123 (or .def_33 A8))) (let ((.def_124 (not .def_123))) (let ((.def_125 (or .def_124 .def_122))) (let ((.def_126 (and A24 .def_87))) (let ((.def_127 (not .def_126))) (let ((.def_128 (and A19 .def_45))) (let ((.def_129 (not .def_128))) (let ((.def_130 (or .def_129 .def_127))) (let ((.def_131 (not .def_130))) (let ((.def_132 (and .def_131 .def_125))) (let ((.def_133 (not .def_132))) (let ((.def_134 (and .def_133 .def_120))) (let ((.def_135 (not .def_134))) (let ((.def_136 (and A20 A7))) (let ((.def_137 (not .def_136))) (let ((.def_138 (and .def_67 .def_45))) (let ((.def_139 (not .def_138))) (let ((.def_140 (or .def_139 .def_137))) (let ((.def_141 (not .def_140))) (let ((.def_142 (and .def_48 .def_15))) (let ((.def_143 (or .def_5 .def_45))) (let ((.def_144 (not .def_143))) (let ((.def_145 (or .def_144 .def_142))) (let ((.def_146 (not .def_145))) (let ((.def_147 (or .def_146 .def_141))) (let ((.def_148 (and .def_37 A10))) (let ((.def_149 (or A20 A19))) (let ((.def_150 (and .def_149 .def_148))) (let ((.def_151 (not .def_150))) (let ((.def_152 (or A21 A17))) (let ((.def_153 (= A7 A24))) (let ((.def_154 (not .def_153))) (let ((.def_155 (or .def_154 .def_152))) (let ((.def_156 (not .def_155))) (let ((.def_157 (or .def_156 .def_151))) (let ((.def_158 (and .def_157 .def_147))) (let ((.def_159 (and .def_158 .def_135))) (let ((.def_160 (and A7 A4))) (let ((.def_161 (not .def_160))) (let ((.def_162 (not A7))) (let ((.def_163 (and .def_162 .def_62))) (let ((.def_164 (not .def_163))) (let ((.def_165 (or .def_164 .def_161))) (let ((.def_166 (not .def_165))) (let ((.def_167 (= .def_2 .def_6))) (let ((.def_168 (not .def_167))) (let ((.def_169 (or .def_47 A22))) (let ((.def_170 (not .def_169))) (let ((.def_171 (and .def_170 .def_168))) (let ((.def_172 (and .def_171 .def_166))) (let ((.def_173 (not .def_172))) (let ((.def_174 (and A5 A9))) (let ((.def_175 (not .def_174))) (let ((.def_176 (or .def_48 A3))) (let ((.def_177 (and .def_176 .def_175))) (let ((.def_178 (or A13 A17))) (let ((.def_179 (not .def_178))) (let ((.def_180 (and .def_2 A19))) (let ((.def_181 (or .def_180 .def_179))) (let ((.def_182 (or .def_181 .def_177))) (let ((.def_183 (or .def_182 .def_173))) (let ((.def_184 (not .def_183))) (let ((.def_185 (and A12 A7))) (let ((.def_186 (not .def_185))) (let ((.def_187 (and .def_13 A4))) (let ((.def_188 (or .def_187 .def_186))) (let ((.def_189 (not .def_188))) (let ((.def_190 (and .def_5 A13))) (let ((.def_191 (not .def_190))) (let ((.def_192 (or .def_67 A19))) (let ((.def_193 (not .def_192))) (let ((.def_194 (= .def_193 .def_191))) (let ((.def_195 (= .def_194 .def_189))) (let ((.def_196 (= .def_12 A8))) (let ((.def_197 (and .def_47 A16))) (let ((.def_198 (and .def_197 .def_196))) (let ((.def_199 (and .def_13 .def_45))) (let ((.def_200 (not .def_199))) (let ((.def_201 (or A18 .def_48))) (let ((.def_202 (not .def_201))) (let ((.def_203 (or .def_202 .def_200))) (let ((.def_204 (or .def_203 .def_198))) (let ((.def_205 (not .def_204))) (let ((.def_206 (or .def_205 .def_195))) (let ((.def_207 (and .def_206 .def_184))) (let ((.def_208 (not .def_207))) (let ((.def_209 (and .def_208 .def_159))) (let ((.def_210 (not .def_209))) (let ((.def_211 (and .def_210 .def_109))) (let ((.def_212 (not .def_211))) (let ((.def_213 (or .def_37 .def_31))) (let ((.def_214 (not A23))) (let ((.def_215 (and .def_214 A15))) (let ((.def_216 (not .def_215))) (let ((.def_217 (and .def_216 .def_213))) (let ((.def_218 (or A7 .def_47))) (let ((.def_219 (not A16))) (let ((.def_220 (= .def_219 A14))) (let ((.def_221 (= .def_220 .def_218))) (let ((.def_222 (and .def_221 .def_217))) (let ((.def_223 (not .def_222))) (let ((.def_224 (and .def_44 A15))) (let ((.def_225 (not .def_224))) (let ((.def_226 (and .def_37 A7))) (let ((.def_227 (and .def_226 .def_225))) (let ((.def_228 (not .def_227))) (let ((.def_229 (or A16 A23))) (let ((.def_230 (and A12 .def_162))) (let ((.def_231 (not .def_230))) (let ((.def_232 (and .def_231 .def_229))) (let ((.def_233 (not .def_232))) (let ((.def_234 (= .def_233 .def_228))) (let ((.def_235 (not .def_234))) (let ((.def_236 (and .def_235 .def_223))) (let ((.def_237 (not .def_236))) (let ((.def_238 (and .def_33 .def_47))) (let ((.def_239 (not .def_238))) (let ((.def_240 (or A21 A14))) (let ((.def_241 (or .def_240 .def_239))) (let ((.def_242 (not .def_241))) (let ((.def_243 (= .def_0 .def_214))) (let ((.def_244 (not .def_243))) (let ((.def_245 (and A20 A13))) (let ((.def_246 (not .def_245))) (let ((.def_247 (and .def_246 .def_244))) (let ((.def_248 (= .def_247 .def_242))) (let ((.def_249 (or A11 A14))) (let ((.def_250 (not .def_249))) (let ((.def_251 (and .def_48 A6))) (let ((.def_252 (or .def_251 .def_250))) (let ((.def_253 (or A14 .def_48))) (let ((.def_254 (not .def_253))) (let ((.def_255 (or .def_6 A12))) (let ((.def_256 (or .def_255 .def_254))) (let ((.def_257 (not .def_256))) (let ((.def_258 (and .def_257 .def_252))) (let ((.def_259 (not .def_258))) (let ((.def_260 (and .def_259 .def_248))) (let ((.def_261 (and .def_260 .def_237))) (let ((.def_262 (or A11 A18))) (let ((.def_263 (not .def_262))) (let ((.def_264 (or .def_0 .def_219))) (let ((.def_265 (not .def_264))) (let ((.def_266 (and .def_265 .def_263))) (let ((.def_267 (not .def_266))) (let ((.def_268 (and .def_5 .def_62))) (let ((.def_269 (= .def_162 A6))) (let ((.def_270 (not .def_269))) (let ((.def_271 (or .def_270 .def_268))) (let ((.def_272 (and .def_271 .def_267))) (let ((.def_273 (or A10 A24))) (let ((.def_274 (not .def_273))) (let ((.def_275 (and A1 A6))) (let ((.def_276 (or .def_275 .def_274))) (let ((.def_277 (and .def_30 A21))) (let ((.def_278 (or A11 .def_37))) (let ((.def_279 (or .def_278 .def_277))) (let ((.def_280 (not .def_279))) (let ((.def_281 (= .def_280 .def_276))) (let ((.def_282 (not .def_281))) (let ((.def_283 (or .def_282 .def_272))) (let ((.def_284 (not .def_283))) (let ((.def_285 (and .def_162 A5))) (let ((.def_286 (and .def_219 A5))) (let ((.def_287 (not .def_286))) (let ((.def_288 (and .def_287 .def_285))) (let ((.def_289 (or A0 A12))) (let ((.def_290 (not .def_289))) (let ((.def_291 (and A6 A21))) (let ((.def_292 (not .def_291))) (let ((.def_293 (or .def_292 .def_290))) (let ((.def_294 (not .def_293))) (let ((.def_295 (and .def_294 .def_288))) (let ((.def_296 (not .def_295))) (let ((.def_297 (or A23 A22))) (let ((.def_298 (and .def_37 A8))) (let ((.def_299 (not .def_298))) (let ((.def_300 (or .def_299 .def_297))) (let ((.def_301 (or A10 .def_15))) (let ((.def_302 (and .def_16 .def_219))) (let ((.def_303 (or .def_302 .def_301))) (let ((.def_304 (not .def_303))) (let ((.def_305 (= .def_304 .def_300))) (let ((.def_306 (or .def_305 .def_296))) (let ((.def_307 (and .def_306 .def_284))) (let ((.def_308 (and .def_307 .def_261))) (let ((.def_309 (and .def_67 A12))) (let ((.def_310 (not .def_309))) (let ((.def_311 (and A13 .def_38))) (let ((.def_312 (or .def_311 .def_310))) (let ((.def_313 (or .def_23 A20))) (let ((.def_314 (or A24 .def_6))) (let ((.def_315 (or .def_314 .def_313))) (let ((.def_316 (or .def_315 .def_312))) (let ((.def_317 (or .def_31 A3))) (let ((.def_318 (not .def_317))) (let ((.def_319 (and .def_219 A12))) (let ((.def_320 (or .def_319 .def_318))) (let ((.def_321 (or .def_219 A17))) (let ((.def_322 (or A16 A16))) (let ((.def_323 (not .def_322))) (let ((.def_324 (= .def_323 .def_321))) (let ((.def_325 (or .def_324 .def_320))) (let ((.def_326 (not .def_325))) (let ((.def_327 (or .def_326 .def_316))) (let ((.def_328 (and .def_5 A9))) (let ((.def_329 (or .def_47 A2))) (let ((.def_330 (not .def_329))) (let ((.def_331 (or .def_330 .def_328))) (let ((.def_332 (or A22 A1))) (let ((.def_333 (not .def_332))) (let ((.def_334 (and A5 .def_2))) (let ((.def_335 (or .def_334 .def_333))) (let ((.def_336 (not .def_335))) (let ((.def_337 (or .def_336 .def_331))) (let ((.def_338 (= A3 .def_5))) (let ((.def_339 (not .def_338))) (let ((.def_340 (and A7 .def_30))) (let ((.def_341 (not .def_340))) (let ((.def_342 (= .def_341 .def_339))) (let ((.def_343 (= A14 A6))) (let ((.def_344 (not .def_343))) (let ((.def_345 (or A15 .def_219))) (let ((.def_346 (not .def_345))) (let ((.def_347 (or .def_346 .def_344))) (let ((.def_348 (and .def_347 .def_342))) (let ((.def_349 (not .def_348))) (let ((.def_350 (and .def_349 .def_337))) (let ((.def_351 (or .def_350 .def_327))) (let ((.def_352 (not .def_351))) (let ((.def_353 (and .def_22 A4))) (let ((.def_354 (= A3 .def_38))) (let ((.def_355 (not .def_354))) (let ((.def_356 (and .def_355 .def_353))) (let ((.def_357 (not .def_356))) (let ((.def_358 (or .def_38 A15))) (let ((.def_359 (and A7 A21))) (let ((.def_360 (not .def_359))) (let ((.def_361 (and .def_360 .def_358))) (let ((.def_362 (or .def_361 .def_357))) (let ((.def_363 (or .def_13 .def_67))) (let ((.def_364 (not .def_363))) (let ((.def_365 (and A19 A14))) (let ((.def_366 (and .def_365 .def_364))) (let ((.def_367 (and .def_219 .def_31))) (let ((.def_368 (not .def_367))) (let ((.def_369 (or A23 A16))) (let ((.def_370 (not .def_369))) (let ((.def_371 (and .def_370 .def_368))) (let ((.def_372 (not .def_371))) (let ((.def_373 (or .def_372 .def_366))) (let ((.def_374 (or .def_373 .def_362))) (let ((.def_375 (not .def_374))) (let ((.def_376 (or A3 .def_30))) (let ((.def_377 (not .def_376))) (let ((.def_378 (or A7 A24))) (let ((.def_379 (or .def_378 .def_377))) (let ((.def_380 (not .def_379))) (let ((.def_381 (or .def_22 A8))) (let ((.def_382 (not .def_381))) (let ((.def_383 (= .def_38 A7))) (let ((.def_384 (or .def_383 .def_382))) (let ((.def_385 (not .def_384))) (let ((.def_386 (or .def_385 .def_380))) (let ((.def_387 (and .def_37 .def_31))) (let ((.def_388 (or A4 .def_44))) (let ((.def_389 (not .def_388))) (let ((.def_390 (or .def_389 .def_387))) (let ((.def_391 (= .def_38 A9))) (let ((.def_392 (and A10 .def_87))) (let ((.def_393 (not .def_392))) (let ((.def_394 (or .def_393 .def_391))) (let ((.def_395 (not .def_394))) (let ((.def_396 (and .def_395 .def_390))) (let ((.def_397 (and .def_396 .def_386))) (let ((.def_398 (not .def_397))) (let ((.def_399 (and .def_398 .def_375))) (let ((.def_400 (or .def_399 .def_352))) (let ((.def_401 (and .def_400 .def_308))) (let ((.def_402 (not .def_401))) (let ((.def_403 (and .def_402 .def_212))) .def_403)))))))))))))))))))))))))))))))))))))))))))))))))))))))))))))))))))))))))))))))))))))))))))))))))))))))))))))))))))))))))))))))))))))))))))))))))))))))))))))))))))))))))))))))))))))))))))))))))))))))))))))))))))))))))))))))))))))))))))))))))))))))))))))))))))))))))))))))))))))))))))))))))))))))))))))))))))))))))))))))))))))))))))))))))))))))))))))))))))))))))))))))))))))))))))))))))))))))))))))))))))))
(check-sat)
